100 8
340 383
663 391
688 246
324 518
653 433
309 345
152 622
231 540
169 884
202 666
299 198
613 446
562 702
382 624
624 445
328 344
275 431
666 139
245 485
694 179
185 576
199 295
203 551
644 358
260 300
144 882
578 341
615 611
829 274
774 172
613 465
852 250
414 691
367 476
380 374
453 638
585 633
633 652
115 615
292 479
437 429
727 222
419 571
160 220
807 142
339 759
256 345
298 198
143 216
597 504
485 377
277 739
423 278
685 254
301 656
133 519
666 148
266 799
87 793
639 409
657 653
270 602
184 855
748 274
577 235
405 378
688 676
421 526
505 280
737 236
91 886
742 125
756 516
253 609
259 265
749 274
431 571
695 405
455 617
268 769
137 531
106 622
630 483
506 764
389 666
140 536
482 637
624 443
462 475
213 190
294 267
382 795
285 546
358 671
769 92
656 203
679 329
229 225
721 233
243 662
